<?xml version="1.0" encoding="UTF-8"?><osil xmlns="os.optimizationservices.org"   xmlns:xsi="http://www.w3.org/2001/XMLSchema-instance" xsi:schemaLocation="os.optimizationservices.org http://www.optimizationservices.org/schemas/2.0/OSiL.xsd" ><instanceHeader><name>st_qpk1</name></instanceHeader><instanceData><variables numberOfVariables="2"><var name="x1"/><var name="x2"/></variables><objectives numberOfObjectives="1"><obj maxOrMin="min" name="defObj_objvar" numberOfObjCoef="2"><coef idx="0">2</coef><coef idx="1">3</coef></obj></objectives><constraints numberOfConstraints="4"><con name="e1" ub="1"/><con name="e2" ub="1"/><con name="e3" ub="3"/><con name="e4" ub="3"/></constraints><linearConstraintCoefficients numberOfValues="8"><start><el mult="5" incr="2">0</el></start><colIdx><el mult="2" incr="1">0</el><el mult="2" incr="1">0</el><el mult="2" incr="1">0</el><el mult="2" incr="1">0</el></colIdx><value><el>-1</el><el mult="2">1</el><el mult="2">-1</el><el mult="2">2</el><el>-1</el></value></linearConstraintCoefficients><quadraticCoefficients  numberOfQuadraticTerms="3" ><qTerm  idx="-1"  idxOne="0"  idxTwo="0"  coef="-2"/><qTerm  idx="-1"  idxOne="0"  idxTwo="1"  coef="2"/><qTerm  idx="-1"  idxOne="1"  idxTwo="1"  coef="-2"/></quadraticCoefficients></instanceData></osil>
